NAME : portcgen-26-25
COMMENT : portcgen N=26, seed=25
TYPE : TSP
DIMENSION : 26
EDGE_WEIGHT_TYPE : EUC_2D
NODE_COORD_SECTION
1 -169088 362721
2 -266044 -312160
3 -23484 -275838
4 -194382 9270
5 66988 -7501
6 -15744 104425
7 -132404 -189422
8 104913 -89689
9 245848 183841
10 55801 -88561
11 627631 36503
12 -332058 -330167
13 76124 103096
14 19140 -106262
15 -209952 -159391
16 117669 213208
17 42591 -230285
18 2319 -117380
19 -73592 -55329
20 52826 -20087
21 -43552 -220714
22 -302023 75475
23 -35223 -111997
24 -166113 304421
25 289477 -161295
26 -132277 -48279
